;(set-option :produce-unsat-cores true )
(set-logic ALL_SUPPORTED )
(declare-sort A$ 0 )
(declare-sort B$ 0 )
(declare-sort A_bool_fun$ 0 )
(declare-sort A_a_bool_fun_fun$ 0 )
(declare-sort Color$ 0)
(declare-sort A_b_rbt$ 0)
(declare-fun r$ ()Color$)
(declare-fun b$ ()Color$)
(declare-fun empty$ ()A_b_rbt$)
(declare-fun select$ (A_b_rbt$)Color$)
(declare-fun selecta$ (A_b_rbt$)A_b_rbt$)
(declare-fun selectb$ (A_b_rbt$)A$)
(declare-fun selectc$ (A_b_rbt$)B$)
(declare-fun selectd$ (A_b_rbt$)A_b_rbt$)
(declare-fun branch$ (Color$ A_b_rbt$ A$ B$ A_b_rbt$ )A_b_rbt$)
(declare-fun c$ ()A_b_rbt$ )
(declare-fun d$ ()A_b_rbt$ )
(declare-fun k$ ()A$ )
(declare-fun l$ ()A_b_rbt$ )
(declare-fun y$ ()A$ )
(declare-fun b$a ()A_b_rbt$ )
(declare-fun ka$ ()B$ )
(declare-fun r$a ()A_b_rbt$ )
(declare-fun va$ ()A$ )
(declare-fun lta$ ()A_b_rbt$ )
(declare-fun rta$ ()A_b_rbt$ )
(declare-fun less$ ()A_a_bool_fun_fun$ )
(declare-fun combine$ (A_b_rbt$ A_b_rbt$ )A_b_rbt$ )
(declare-fun fun_app$ (A_bool_fun$ A$ )Bool )
(declare-fun fun_app$a (A_a_bool_fun_fun$ A$ )A_bool_fun$ )
(declare-fun rbt_less$ (A_a_bool_fun_fun$ A$ A_b_rbt$ )Bool )
(declare-fun rbt_sorted$ (A_a_bool_fun_fun$ A_b_rbt$ )Bool )
(declare-fun rbt_greater$ (A_a_bool_fun_fun$ A$ A_b_rbt$ )Bool )
(assert (! (not (and (fun_app$ (fun_app$a less$ va$ )y$ )(rbt_greater$ less$ y$ d$ ))):named a0 ))
(assert (! (forall ((?v0 A$ )(?v1 A$ ))(= (not (fun_app$ (fun_app$a less$ ?v0 )?v1 ))(or (fun_app$ (fun_app$a less$ ?v1 )?v0 )(= ?v0 ?v1 )))):named a1 ))
(assert (! (forall ((?v0 A$ )(?v1 A$ ))(= (not (= ?v0 ?v1 ))(or (fun_app$ (fun_app$a less$ ?v0 )?v1 )(fun_app$ (fun_app$a less$ ?v1 )?v0 )))):named a2 ))
(assert (! (forall ((?v0 A$ )(?v1 A$ ))(=> (and (=> (fun_app$ (fun_app$a less$ ?v0 )?v1 )false )(and (=> (= ?v0 ?v1 )false )(=> (fun_app$ (fun_app$a less$ ?v1 )?v0 )false )))false )):named a3 ))
(assert (! (forall ((?v0 A$ )(?v1 A$ ))(=> (and (fun_app$ (fun_app$a less$ ?v0 )?v1 )(=> (not false )(fun_app$ (fun_app$a less$ ?v1 )?v0 )))false )):named a4 ))
(assert (! (forall ((?v0 A$ )(?v1 A$ )(?v2 A$ ))(=> (and (fun_app$ (fun_app$a less$ ?v0 )?v1 )(fun_app$ (fun_app$a less$ ?v1 )?v2 ))(fun_app$ (fun_app$a less$ ?v0 )?v2 ))):named a5 ))
(assert (! (forall ((?v0 A$ )(?v1 A$ )(?v2 A$ ))(=> (and (fun_app$ (fun_app$a less$ ?v0 )?v1 )(fun_app$ (fun_app$a less$ ?v1 )?v2 ))(fun_app$ (fun_app$a less$ ?v0 )?v2 ))):named a6 ))
(assert (! (forall ((?v0 A$ )(?v1 A$ )(?v2 A$ ))(=> (and (fun_app$ (fun_app$a less$ ?v0 )?v1 )(fun_app$ (fun_app$a less$ ?v2 )?v0 ))(fun_app$ (fun_app$a less$ ?v2 )?v1 ))):named a7 ))
(assert (! (forall ((?v0 A$ )(?v1 A$ ))(=> (and (fun_app$ (fun_app$a less$ ?v0 )?v1 )(fun_app$ (fun_app$a less$ ?v1 )?v0 ))false )):named a8 ))
(assert (! (forall ((?v0 A$ )(?v1 A$ ))(=> (and (fun_app$ (fun_app$a less$ ?v0 )?v1 )(fun_app$ (fun_app$a less$ ?v1 )?v0 ))false )):named a9 ))
(assert (! (forall ((?v0 A$ )(?v1 A$ ))(=> (and (fun_app$ (fun_app$a less$ ?v0 )?v1 )(fun_app$ (fun_app$a less$ ?v1 )?v0 ))false )):named a10 ))
(assert (! (forall ((?v0 A$ )(?v1 A$ )(?v2 A$ ))(=> (and (fun_app$ (fun_app$a less$ ?v0 )?v1 )(= ?v1 ?v2 ))(fun_app$ (fun_app$a less$ ?v0 )?v2 ))):named a11 ))
(assert (! (forall ((?v0 A$ )(?v1 A$ ))(=> (fun_app$ (fun_app$a less$ ?v0 )?v1 )(= (= ?v1 ?v0 )false ))):named a12 ))
(assert (! (forall ((?v0 A$ )(?v1 A$ ))(=> (fun_app$ (fun_app$a less$ ?v0 )?v1 )(= (= ?v0 ?v1 )false ))):named a13 ))
(assert (! (forall ((?v0 A$ )(?v1 A$ )(?v2 Bool ))(=> (fun_app$ (fun_app$a less$ ?v0 )?v1 )(= (=> (fun_app$ (fun_app$a less$ ?v1 )?v0 )?v2 )true ))):named a14 ))
(assert (! (forall ((?v0 A$ )(?v1 A$ ))(=> (fun_app$ (fun_app$a less$ ?v0 )?v1 )(= (not (fun_app$ (fun_app$a less$ ?v1 )?v0 ))true ))):named a15 ))
(assert (! (forall ((?v0 A$ )(?v1 A$ ))(=> (fun_app$ (fun_app$a less$ ?v0 )?v1 )(not (fun_app$ (fun_app$a less$ ?v1 )?v0 )))):named a16 ))
(assert (! (forall ((?v0 A$ )(?v1 A$ ))(=> (fun_app$ (fun_app$a less$ ?v0 )?v1 )(not (= ?v0 ?v1 )))):named a17 ))
(assert (! (forall ((?v0 A$ )(?v1 A$ ))(=> (fun_app$ (fun_app$a less$ ?v0 )?v1 )(not (= ?v0 ?v1 )))):named a18 ))
(assert (! (forall ((?v0 A$ )(?v1 A$ ))(=> (fun_app$ (fun_app$a less$ ?v0 )?v1 )(not (= ?v1 ?v0 )))):named a19 ))
(assert (! (forall ((?v0 A$ )(?v1 A$ )(?v2 A$ ))(=> (and (= ?v0 ?v1 )(fun_app$ (fun_app$a less$ ?v1 )?v2 ))(fun_app$ (fun_app$a less$ ?v0 )?v2 ))):named a20 ))
(assert (! (forall ((?v0 A$ )(?v1 A$ ))(=> (not (fun_app$ (fun_app$a less$ ?v0 )?v1 ))(= (not (fun_app$ (fun_app$a less$ ?v1 )?v0 ))(= ?v1 ?v0 )))):named a21 ))
(assert (! (forall ((?v0 A$ )(?v1 A$ ))(=> (and (not (= ?v0 ?v1 ))(and (=> (fun_app$ (fun_app$a less$ ?v0 )?v1 )false )(=> (fun_app$ (fun_app$a less$ ?v1 )?v0 )false )))false )):named a22 ))
(assert (! (forall ((?v0 A$ )(?v1 A$ ))(or (fun_app$ (fun_app$a less$ ?v0 )?v1 )(or (= ?v0 ?v1 )(fun_app$ (fun_app$a less$ ?v1 )?v0 )))):named a23 ))
(assert (! (forall ((?v0 A$ ))(not (fun_app$ (fun_app$a less$ ?v0 )?v0 ))):named a24 ))
(assert (! (forall ((?v0 A$ ))(not (fun_app$ (fun_app$a less$ ?v0 )?v0 ))):named a25 ))
(assert (! (rbt_sorted$ less$ l$ ):named a26 ))
(assert (! (rbt_sorted$ less$ r$a ):named a27 ))
(assert (! (forall ((?v0 A$ )(?v1 A$ )(?v2 A_b_rbt$ ))(=> (and (fun_app$ (fun_app$a less$ ?v0 )?v1 )(rbt_greater$ less$ ?v1 ?v2 ))(rbt_greater$ less$ ?v0 ?v2 ))):named a28 ))
(assert (! (forall ((?v0 A$ )(?v1 A_b_rbt$ )(?v2 A$ ))(=> (and (rbt_less$ less$ ?v0 ?v1 )(fun_app$ (fun_app$a less$ ?v0 )?v2 ))(rbt_less$ less$ ?v2 ?v1 ))):named a29 ))
(assert (! (rbt_less$ less$ y$ (combine$ b$a c$ )):named a30 ))
(assert (! (rbt_less$ less$ k$ l$ ):named a31 ))
(assert (! (rbt_greater$ less$ k$ r$a ):named a32 ))
(assert (! (forall ((?v0 A$ )(?v1 A_b_rbt$ )(?v2 A_b_rbt$ ))(=> (and (rbt_greater$ less$ ?v0 ?v1 )(rbt_greater$ less$ ?v0 ?v2 ))(rbt_greater$ less$ ?v0 (combine$ ?v1 ?v2 )))):named a33 ))
(assert (! (= (combine$ b$a c$ )(branch$ r$ lta$ va$ ka$ rta$ )):named a34 ))
(assert (! (forall ((?v0 A$ )(?v1 A_b_rbt$ )(?v2 A_b_rbt$ ))(=> (and (rbt_less$ less$ ?v0 ?v1 )(rbt_less$ less$ ?v0 ?v2 ))(rbt_less$ less$ ?v0 (combine$ ?v1 ?v2 )))):named a35 ))
(check-sat )
;(get-unsat-core )
